c Reduced graph for R100_5gb generated by Cyril Grelier
p edge 100 2456
e 1 2
e 1 3
e 1 5
e 1 6
e 1 8
e 1 9
e 1 10
e 1 17
e 1 18
e 1 19
e 1 21
e 1 23
e 1 24
e 1 25
e 1 26
e 1 28
e 1 29
e 1 30
e 1 31
e 1 32
e 1 33
e 1 34
e 1 36
e 1 37
e 1 38
e 1 39
e 1 40
e 1 42
e 1 45
e 1 47
e 1 50
e 1 51
e 1 54
e 1 55
e 1 58
e 1 61
e 1 63
e 1 64
e 1 67
e 1 68
e 1 69
e 1 70
e 1 71
e 1 72
e 1 74
e 1 77
e 1 78
e 1 80
e 1 81
e 1 82
e 1 83
e 1 88
e 1 89
e 1 92
e 1 93
e 1 95
e 1 96
e 1 97
e 1 98
e 1 99
e 1 100
e 2 4
e 2 6
e 2 7
e 2 8
e 2 9
e 2 10
e 2 12
e 2 13
e 2 15
e 2 21
e 2 23
e 2 25
e 2 30
e 2 31
e 2 33
e 2 35
e 2 36
e 2 37
e 2 38
e 2 41
e 2 44
e 2 45
e 2 48
e 2 54
e 2 55
e 2 56
e 2 57
e 2 61
e 2 62
e 2 63
e 2 64
e 2 65
e 2 66
e 2 67
e 2 68
e 2 70
e 2 71
e 2 72
e 2 73
e 2 74
e 2 76
e 2 80
e 2 82
e 2 83
e 2 85
e 2 87
e 2 88
e 2 89
e 2 91
e 2 93
e 2 94
e 2 96
e 2 98
e 2 100
e 3 4
e 3 8
e 3 9
e 3 10
e 3 11
e 3 12
e 3 17
e 3 18
e 3 20
e 3 21
e 3 23
e 3 24
e 3 25
e 3 26
e 3 27
e 3 30
e 3 31
e 3 32
e 3 33
e 3 34
e 3 35
e 3 40
e 3 41
e 3 42
e 3 43
e 3 48
e 3 49
e 3 51
e 3 54
e 3 55
e 3 57
e 3 59
e 3 61
e 3 62
e 3 63
e 3 64
e 3 65
e 3 70
e 3 74
e 3 76
e 3 77
e 3 78
e 3 81
e 3 85
e 3 86
e 3 87
e 3 90
e 3 94
e 3 95
e 3 98
e 3 99
e 4 9
e 4 10
e 4 11
e 4 14
e 4 15
e 4 16
e 4 18
e 4 20
e 4 21
e 4 22
e 4 23
e 4 24
e 4 25
e 4 26
e 4 29
e 4 30
e 4 31
e 4 36
e 4 38
e 4 39
e 4 41
e 4 43
e 4 45
e 4 48
e 4 50
e 4 51
e 4 54
e 4 55
e 4 57
e 4 60
e 4 63
e 4 64
e 4 70
e 4 71
e 4 74
e 4 75
e 4 76
e 4 78
e 4 83
e 4 84
e 4 86
e 4 87
e 4 88
e 4 90
e 4 93
e 4 94
e 4 96
e 4 97
e 4 98
e 4 99
e 5 6
e 5 7
e 5 8
e 5 9
e 5 10
e 5 13
e 5 14
e 5 16
e 5 20
e 5 21
e 5 23
e 5 24
e 5 27
e 5 30
e 5 31
e 5 33
e 5 35
e 5 39
e 5 40
e 5 41
e 5 42
e 5 44
e 5 46
e 5 48
e 5 49
e 5 52
e 5 54
e 5 58
e 5 60
e 5 62
e 5 64
e 5 65
e 5 68
e 5 74
e 5 75
e 5 76
e 5 80
e 5 81
e 5 84
e 5 86
e 5 88
e 5 89
e 5 90
e 5 91
e 5 93
e 5 94
e 5 95
e 5 98
e 5 99
e 6 7
e 6 8
e 6 11
e 6 12
e 6 13
e 6 14
e 6 19
e 6 20
e 6 23
e 6 24
e 6 27
e 6 30
e 6 32
e 6 36
e 6 38
e 6 40
e 6 43
e 6 46
e 6 47
e 6 49
e 6 53
e 6 57
e 6 59
e 6 60
e 6 61
e 6 62
e 6 63
e 6 67
e 6 70
e 6 72
e 6 74
e 6 75
e 6 80
e 6 81
e 6 82
e 6 85
e 6 86
e 6 87
e 6 88
e 6 89
e 6 91
e 6 94
e 6 96
e 6 98
e 6 100
e 7 9
e 7 10
e 7 11
e 7 12
e 7 13
e 7 15
e 7 17
e 7 20
e 7 21
e 7 22
e 7 23
e 7 24
e 7 25
e 7 29
e 7 31
e 7 32
e 7 38
e 7 41
e 7 43
e 7 45
e 7 49
e 7 51
e 7 54
e 7 56
e 7 57
e 7 62
e 7 64
e 7 65
e 7 66
e 7 68
e 7 69
e 7 70
e 7 71
e 7 73
e 7 76
e 7 78
e 7 81
e 7 82
e 7 85
e 7 89
e 7 92
e 7 96
e 7 99
e 7 100
e 8 9
e 8 15
e 8 16
e 8 20
e 8 21
e 8 24
e 8 26
e 8 32
e 8 35
e 8 36
e 8 38
e 8 39
e 8 44
e 8 46
e 8 55
e 8 56
e 8 60
e 8 61
e 8 63
e 8 65
e 8 67
e 8 68
e 8 69
e 8 72
e 8 75
e 8 77
e 8 79
e 8 82
e 8 83
e 8 84
e 8 85
e 8 87
e 8 88
e 8 89
e 8 92
e 8 93
e 8 95
e 8 97
e 8 98
e 8 99
e 8 100
e 9 10
e 9 11
e 9 13
e 9 15
e 9 18
e 9 20
e 9 22
e 9 23
e 9 24
e 9 26
e 9 29
e 9 30
e 9 32
e 9 33
e 9 34
e 9 35
e 9 36
e 9 39
e 9 43
e 9 46
e 9 49
e 9 50
e 9 51
e 9 53
e 9 55
e 9 57
e 9 58
e 9 60
e 9 61
e 9 64
e 9 65
e 9 68
e 9 69
e 9 71
e 9 72
e 9 76
e 9 77
e 9 78
e 9 80
e 9 83
e 9 84
e 9 85
e 9 90
e 9 92
e 9 94
e 9 97
e 9 98
e 9 99
e 10 11
e 10 12
e 10 18
e 10 19
e 10 20
e 10 21
e 10 23
e 10 26
e 10 30
e 10 37
e 10 39
e 10 44
e 10 48
e 10 49
e 10 50
e 10 51
e 10 52
e 10 56
e 10 57
e 10 58
e 10 59
e 10 61
e 10 62
e 10 63
e 10 67
e 10 69
e 10 70
e 10 72
e 10 74
e 10 75
e 10 76
e 10 78
e 10 81
e 10 83
e 10 84
e 10 85
e 10 87
e 10 88
e 10 90
e 10 94
e 10 95
e 10 98
e 10 100
e 11 13
e 11 21
e 11 23
e 11 24
e 11 26
e 11 28
e 11 29
e 11 31
e 11 33
e 11 36
e 11 39
e 11 47
e 11 48
e 11 50
e 11 57
e 11 59
e 11 60
e 11 61
e 11 62
e 11 65
e 11 67
e 11 69
e 11 71
e 11 72
e 11 73
e 11 75
e 11 76
e 11 77
e 11 78
e 11 80
e 11 84
e 11 85
e 11 89
e 11 90
e 11 93
e 11 94
e 11 95
e 11 97
e 11 98
e 11 99
e 12 14
e 12 15
e 12 16
e 12 17
e 12 18
e 12 24
e 12 25
e 12 26
e 12 29
e 12 30
e 12 31
e 12 32
e 12 33
e 12 34
e 12 37
e 12 38
e 12 39
e 12 40
e 12 42
e 12 44
e 12 45
e 12 47
e 12 48
e 12 51
e 12 52
e 12 53
e 12 54
e 12 55
e 12 56
e 12 59
e 12 60
e 12 61
e 12 62
e 12 63
e 12 64
e 12 68
e 12 72
e 12 75
e 12 76
e 12 79
e 12 80
e 12 83
e 12 85
e 12 86
e 12 88
e 12 95
e 12 98
e 13 14
e 13 15
e 13 19
e 13 22
e 13 26
e 13 28
e 13 29
e 13 31
e 13 33
e 13 34
e 13 35
e 13 36
e 13 37
e 13 38
e 13 41
e 13 46
e 13 51
e 13 52
e 13 53
e 13 54
e 13 55
e 13 56
e 13 60
e 13 63
e 13 67
e 13 68
e 13 73
e 13 74
e 13 75
e 13 76
e 13 78
e 13 81
e 13 83
e 13 84
e 13 85
e 13 86
e 13 88
e 13 89
e 13 90
e 13 91
e 13 93
e 13 95
e 13 97
e 13 99
e 14 16
e 14 19
e 14 26
e 14 28
e 14 29
e 14 30
e 14 33
e 14 34
e 14 35
e 14 36
e 14 37
e 14 38
e 14 42
e 14 44
e 14 47
e 14 48
e 14 49
e 14 53
e 14 54
e 14 55
e 14 56
e 14 58
e 14 60
e 14 61
e 14 62
e 14 65
e 14 66
e 14 67
e 14 68
e 14 69
e 14 70
e 14 71
e 14 74
e 14 75
e 14 77
e 14 78
e 14 82
e 14 83
e 14 84
e 14 85
e 14 88
e 14 89
e 14 95
e 14 99
e 14 100
e 15 18
e 15 19
e 15 20
e 15 23
e 15 24
e 15 25
e 15 26
e 15 27
e 15 29
e 15 30
e 15 32
e 15 34
e 15 36
e 15 37
e 15 42
e 15 43
e 15 46
e 15 47
e 15 49
e 15 50
e 15 52
e 15 53
e 15 55
e 15 56
e 15 60
e 15 62
e 15 63
e 15 67
e 15 68
e 15 74
e 15 77
e 15 82
e 15 84
e 15 85
e 15 88
e 15 90
e 15 94
e 15 95
e 15 97
e 15 98
e 15 99
e 16 17
e 16 18
e 16 20
e 16 21
e 16 22
e 16 25
e 16 26
e 16 27
e 16 28
e 16 30
e 16 33
e 16 35
e 16 38
e 16 39
e 16 46
e 16 48
e 16 50
e 16 52
e 16 54
e 16 56
e 16 60
e 16 69
e 16 72
e 16 73
e 16 74
e 16 75
e 16 77
e 16 81
e 16 82
e 16 85
e 16 86
e 16 89
e 16 90
e 16 91
e 16 93
e 16 96
e 16 100
e 17 19
e 17 20
e 17 28
e 17 30
e 17 32
e 17 34
e 17 36
e 17 37
e 17 40
e 17 41
e 17 43
e 17 46
e 17 49
e 17 50
e 17 51
e 17 52
e 17 55
e 17 56
e 17 57
e 17 59
e 17 60
e 17 61
e 17 64
e 17 72
e 17 73
e 17 74
e 17 76
e 17 78
e 17 80
e 17 84
e 17 86
e 17 88
e 17 90
e 17 92
e 17 94
e 17 97
e 17 98
e 18 19
e 18 21
e 18 22
e 18 27
e 18 28
e 18 29
e 18 32
e 18 33
e 18 36
e 18 40
e 18 45
e 18 46
e 18 48
e 18 49
e 18 53
e 18 56
e 18 57
e 18 58
e 18 62
e 18 64
e 18 65
e 18 66
e 18 67
e 18 68
e 18 69
e 18 71
e 18 73
e 18 74
e 18 76
e 18 77
e 18 78
e 18 79
e 18 82
e 18 84
e 18 86
e 18 87
e 18 89
e 18 90
e 18 91
e 18 92
e 18 93
e 18 94
e 18 99
e 19 21
e 19 22
e 19 24
e 19 25
e 19 27
e 19 29
e 19 33
e 19 34
e 19 37
e 19 38
e 19 39
e 19 42
e 19 43
e 19 44
e 19 45
e 19 48
e 19 49
e 19 50
e 19 51
e 19 52
e 19 53
e 19 56
e 19 58
e 19 61
e 19 63
e 19 65
e 19 66
e 19 70
e 19 72
e 19 73
e 19 74
e 19 75
e 19 77
e 19 80
e 19 81
e 19 82
e 19 83
e 19 85
e 19 86
e 19 88
e 19 89
e 19 91
e 19 92
e 19 94
e 19 99
e 19 100
e 20 21
e 20 22
e 20 23
e 20 24
e 20 28
e 20 29
e 20 36
e 20 37
e 20 38
e 20 40
e 20 41
e 20 42
e 20 44
e 20 46
e 20 48
e 20 49
e 20 54
e 20 55
e 20 57
e 20 58
e 20 59
e 20 61
e 20 62
e 20 63
e 20 64
e 20 65
e 20 67
e 20 68
e 20 69
e 20 71
e 20 72
e 20 80
e 20 81
e 20 83
e 20 85
e 20 89
e 20 91
e 20 92
e 20 94
e 20 96
e 20 100
e 21 22
e 21 24
e 21 28
e 21 31
e 21 32
e 21 33
e 21 34
e 21 35
e 21 37
e 21 39
e 21 40
e 21 43
e 21 44
e 21 45
e 21 46
e 21 47
e 21 49
e 21 50
e 21 52
e 21 53
e 21 62
e 21 63
e 21 67
e 21 69
e 21 70
e 21 71
e 21 72
e 21 75
e 21 76
e 21 77
e 21 79
e 21 85
e 21 92
e 21 93
e 21 94
e 21 96
e 21 98
e 22 25
e 22 27
e 22 29
e 22 34
e 22 35
e 22 38
e 22 39
e 22 40
e 22 43
e 22 45
e 22 50
e 22 51
e 22 52
e 22 54
e 22 55
e 22 57
e 22 59
e 22 62
e 22 65
e 22 67
e 22 68
e 22 69
e 22 73
e 22 75
e 22 77
e 22 78
e 22 80
e 22 82
e 22 91
e 22 93
e 22 95
e 22 96
e 22 98
e 22 100
e 23 24
e 23 26
e 23 27
e 23 28
e 23 29
e 23 32
e 23 33
e 23 36
e 23 40
e 23 41
e 23 43
e 23 46
e 23 47
e 23 48
e 23 52
e 23 53
e 23 55
e 23 56
e 23 59
e 23 60
e 23 61
e 23 62
e 23 63
e 23 66
e 23 67
e 23 68
e 23 70
e 23 71
e 23 72
e 23 73
e 23 76
e 23 77
e 23 78
e 23 79
e 23 80
e 23 85
e 23 86
e 23 89
e 23 91
e 23 93
e 23 97
e 23 98
e 23 99
e 24 25
e 24 26
e 24 28
e 24 29
e 24 32
e 24 34
e 24 36
e 24 37
e 24 43
e 24 45
e 24 47
e 24 51
e 24 52
e 24 53
e 24 54
e 24 55
e 24 56
e 24 57
e 24 58
e 24 62
e 24 63
e 24 64
e 24 66
e 24 69
e 24 70
e 24 76
e 24 77
e 24 78
e 24 79
e 24 80
e 24 81
e 24 88
e 24 90
e 24 91
e 24 93
e 24 95
e 24 99
e 25 29
e 25 30
e 25 34
e 25 35
e 25 36
e 25 37
e 25 38
e 25 40
e 25 42
e 25 44
e 25 45
e 25 46
e 25 47
e 25 48
e 25 52
e 25 54
e 25 55
e 25 56
e 25 57
e 25 58
e 25 60
e 25 64
e 25 65
e 25 66
e 25 71
e 25 72
e 25 75
e 25 76
e 25 77
e 25 79
e 25 83
e 25 88
e 25 89
e 25 90
e 25 91
e 25 92
e 25 94
e 25 95
e 25 99
e 25 100
e 26 30
e 26 31
e 26 32
e 26 33
e 26 35
e 26 38
e 26 39
e 26 40
e 26 41
e 26 47
e 26 49
e 26 50
e 26 51
e 26 54
e 26 59
e 26 60
e 26 61
e 26 65
e 26 67
e 26 68
e 26 72
e 26 75
e 26 76
e 26 79
e 26 82
e 26 85
e 26 89
e 26 90
e 26 91
e 26 94
e 26 95
e 27 34
e 27 35
e 27 37
e 27 39
e 27 40
e 27 42
e 27 46
e 27 47
e 27 50
e 27 56
e 27 58
e 27 59
e 27 60
e 27 61
e 27 62
e 27 63
e 27 65
e 27 66
e 27 68
e 27 71
e 27 72
e 27 74
e 27 75
e 27 76
e 27 81
e 27 82
e 27 83
e 27 84
e 27 88
e 27 90
e 27 91
e 27 94
e 27 96
e 27 98
e 27 100
e 28 29
e 28 30
e 28 31
e 28 32
e 28 33
e 28 36
e 28 37
e 28 38
e 28 39
e 28 40
e 28 41
e 28 43
e 28 49
e 28 51
e 28 52
e 28 55
e 28 58
e 28 62
e 28 64
e 28 70
e 28 72
e 28 73
e 28 74
e 28 78
e 28 80
e 28 83
e 28 84
e 28 86
e 28 87
e 28 89
e 28 93
e 28 98
e 28 100
e 29 30
e 29 33
e 29 35
e 29 37
e 29 41
e 29 44
e 29 45
e 29 47
e 29 48
e 29 49
e 29 50
e 29 52
e 29 53
e 29 56
e 29 61
e 29 62
e 29 65
e 29 66
e 29 69
e 29 70
e 29 72
e 29 73
e 29 77
e 29 80
e 29 82
e 29 83
e 29 84
e 29 85
e 29 86
e 29 87
e 29 88
e 29 93
e 29 94
e 29 95
e 29 98
e 29 99
e 29 100
e 30 31
e 30 32
e 30 35
e 30 36
e 30 39
e 30 41
e 30 42
e 30 43
e 30 45
e 30 47
e 30 48
e 30 50
e 30 51
e 30 53
e 30 55
e 30 56
e 30 57
e 30 58
e 30 62
e 30 64
e 30 70
e 30 71
e 30 72
e 30 73
e 30 74
e 30 75
e 30 81
e 30 83
e 30 84
e 30 88
e 30 90
e 30 93
e 30 94
e 30 96
e 30 98
e 30 100
e 31 33
e 31 34
e 31 37
e 31 42
e 31 46
e 31 47
e 31 49
e 31 51
e 31 53
e 31 55
e 31 59
e 31 60
e 31 61
e 31 62
e 31 63
e 31 64
e 31 65
e 31 67
e 31 68
e 31 71
e 31 72
e 31 73
e 31 76
e 31 77
e 31 79
e 31 80
e 31 81
e 31 82
e 31 84
e 31 85
e 31 86
e 31 89
e 31 90
e 31 91
e 31 93
e 31 94
e 31 96
e 31 97
e 31 99
e 32 33
e 32 35
e 32 36
e 32 39
e 32 40
e 32 43
e 32 44
e 32 47
e 32 48
e 32 49
e 32 51
e 32 52
e 32 55
e 32 57
e 32 58
e 32 61
e 32 63
e 32 65
e 32 68
e 32 69
e 32 71
e 32 74
e 32 75
e 32 76
e 32 78
e 32 80
e 32 81
e 32 82
e 32 84
e 32 86
e 32 87
e 32 90
e 32 92
e 32 97
e 32 99
e 33 38
e 33 42
e 33 45
e 33 50
e 33 51
e 33 54
e 33 55
e 33 56
e 33 57
e 33 58
e 33 61
e 33 62
e 33 64
e 33 71
e 33 73
e 33 76
e 33 77
e 33 79
e 33 82
e 33 84
e 33 87
e 33 90
e 33 92
e 33 93
e 33 95
e 33 96
e 34 37
e 34 38
e 34 40
e 34 42
e 34 45
e 34 46
e 34 47
e 34 48
e 34 49
e 34 52
e 34 58
e 34 62
e 34 63
e 34 66
e 34 72
e 34 74
e 34 75
e 34 81
e 34 82
e 34 83
e 34 84
e 34 87
e 34 88
e 34 90
e 34 91
e 34 92
e 34 94
e 34 95
e 34 96
e 34 98
e 35 36
e 35 39
e 35 40
e 35 41
e 35 46
e 35 47
e 35 51
e 35 53
e 35 55
e 35 56
e 35 58
e 35 59
e 35 63
e 35 64
e 35 65
e 35 66
e 35 67
e 35 72
e 35 73
e 35 75
e 35 76
e 35 77
e 35 79
e 35 81
e 35 85
e 35 86
e 35 88
e 35 89
e 36 37
e 36 39
e 36 40
e 36 41
e 36 45
e 36 46
e 36 47
e 36 50
e 36 52
e 36 54
e 36 56
e 36 57
e 36 59
e 36 63
e 36 68
e 36 71
e 36 74
e 36 77
e 36 79
e 36 81
e 36 83
e 36 84
e 36 88
e 36 89
e 36 91
e 36 95
e 36 97
e 36 99
e 37 39
e 37 41
e 37 42
e 37 47
e 37 48
e 37 50
e 37 54
e 37 56
e 37 57
e 37 58
e 37 62
e 37 63
e 37 65
e 37 66
e 37 71
e 37 72
e 37 73
e 37 76
e 37 78
e 37 79
e 37 80
e 37 82
e 37 88
e 37 90
e 37 92
e 37 95
e 37 96
e 37 97
e 37 100
e 38 40
e 38 45
e 38 48
e 38 50
e 38 51
e 38 56
e 38 59
e 38 62
e 38 65
e 38 69
e 38 70
e 38 71
e 38 79
e 38 80
e 38 81
e 38 82
e 38 83
e 38 84
e 38 85
e 38 87
e 38 90
e 38 91
e 38 92
e 38 99
e 38 100
e 39 41
e 39 42
e 39 43
e 39 48
e 39 51
e 39 56
e 39 61
e 39 63
e 39 65
e 39 67
e 39 69
e 39 72
e 39 74
e 39 75
e 39 76
e 39 77
e 39 83
e 39 84
e 39 88
e 39 96
e 39 97
e 39 99
e 40 42
e 40 44
e 40 45
e 40 47
e 40 48
e 40 51
e 40 52
e 40 57
e 40 58
e 40 61
e 40 63
e 40 64
e 40 67
e 40 69
e 40 70
e 40 71
e 40 73
e 40 76
e 40 78
e 40 83
e 40 86
e 40 87
e 40 89
e 40 90
e 40 92
e 40 93
e 40 94
e 40 95
e 40 96
e 40 97
e 40 98
e 41 43
e 41 45
e 41 46
e 41 47
e 41 49
e 41 53
e 41 55
e 41 56
e 41 57
e 41 61
e 41 63
e 41 64
e 41 65
e 41 66
e 41 67
e 41 69
e 41 71
e 41 72
e 41 73
e 41 74
e 41 76
e 41 77
e 41 78
e 41 79
e 41 83
e 41 84
e 41 86
e 41 91
e 41 92
e 41 94
e 41 95
e 41 96
e 41 97
e 41 100
e 42 44
e 42 45
e 42 46
e 42 48
e 42 51
e 42 54
e 42 56
e 42 58
e 42 59
e 42 61
e 42 62
e 42 64
e 42 65
e 42 66
e 42 67
e 42 71
e 42 72
e 42 74
e 42 77
e 42 80
e 42 81
e 42 82
e 42 83
e 42 85
e 42 88
e 42 90
e 42 91
e 42 93
e 42 94
e 42 96
e 42 97
e 42 99
e 42 100
e 43 44
e 43 46
e 43 47
e 43 49
e 43 52
e 43 54
e 43 56
e 43 57
e 43 59
e 43 61
e 43 65
e 43 66
e 43 68
e 43 70
e 43 71
e 43 72
e 43 73
e 43 75
e 43 76
e 43 77
e 43 78
e 43 79
e 43 80
e 43 81
e 43 82
e 43 84
e 43 88
e 43 89
e 43 93
e 43 94
e 43 95
e 43 96
e 44 45
e 44 47
e 44 48
e 44 51
e 44 53
e 44 55
e 44 57
e 44 63
e 44 64
e 44 66
e 44 67
e 44 68
e 44 69
e 44 72
e 44 73
e 44 76
e 44 78
e 44 79
e 44 80
e 44 81
e 44 83
e 44 85
e 44 86
e 44 87
e 44 92
e 44 93
e 44 94
e 44 97
e 44 100
e 45 46
e 45 47
e 45 49
e 45 51
e 45 54
e 45 55
e 45 56
e 45 58
e 45 59
e 45 62
e 45 69
e 45 70
e 45 71
e 45 72
e 45 74
e 45 75
e 45 77
e 45 80
e 45 81
e 45 82
e 45 85
e 45 86
e 45 87
e 45 88
e 45 90
e 45 93
e 45 94
e 45 95
e 45 97
e 45 98
e 45 99
e 46 48
e 46 53
e 46 54
e 46 56
e 46 57
e 46 60
e 46 61
e 46 62
e 46 63
e 46 65
e 46 66
e 46 68
e 46 69
e 46 70
e 46 71
e 46 73
e 46 74
e 46 76
e 46 83
e 46 86
e 46 87
e 46 88
e 46 89
e 46 91
e 46 92
e 46 93
e 46 95
e 46 97
e 46 99
e 46 100
e 47 48
e 47 49
e 47 51
e 47 52
e 47 54
e 47 55
e 47 56
e 47 58
e 47 61
e 47 63
e 47 65
e 47 68
e 47 70
e 47 72
e 47 73
e 47 74
e 47 75
e 47 78
e 47 79
e 47 80
e 47 83
e 47 87
e 47 92
e 47 94
e 47 97
e 48 50
e 48 51
e 48 52
e 48 53
e 48 55
e 48 58
e 48 59
e 48 61
e 48 63
e 48 64
e 48 65
e 48 68
e 48 70
e 48 71
e 48 73
e 48 75
e 48 80
e 48 86
e 48 90
e 48 91
e 48 94
e 48 95
e 48 97
e 48 99
e 49 51
e 49 52
e 49 53
e 49 54
e 49 57
e 49 60
e 49 61
e 49 63
e 49 65
e 49 66
e 49 68
e 49 71
e 49 72
e 49 74
e 49 75
e 49 80
e 49 81
e 49 83
e 49 85
e 49 87
e 49 90
e 49 93
e 49 94
e 49 95
e 49 98
e 50 51
e 50 52
e 50 54
e 50 55
e 50 59
e 50 61
e 50 63
e 50 65
e 50 68
e 50 69
e 50 76
e 50 78
e 50 80
e 50 82
e 50 84
e 50 85
e 50 88
e 50 90
e 50 91
e 50 92
e 50 93
e 50 96
e 50 98
e 50 100
e 51 52
e 51 53
e 51 54
e 51 58
e 51 60
e 51 61
e 51 62
e 51 63
e 51 65
e 51 66
e 51 68
e 51 74
e 51 75
e 51 78
e 51 79
e 51 82
e 51 85
e 51 88
e 51 89
e 51 91
e 51 95
e 51 96
e 51 97
e 51 98
e 51 99
e 52 53
e 52 54
e 52 56
e 52 57
e 52 58
e 52 59
e 52 60
e 52 63
e 52 64
e 52 71
e 52 73
e 52 75
e 52 76
e 52 79
e 52 82
e 52 83
e 52 84
e 52 86
e 52 90
e 52 94
e 52 95
e 52 96
e 52 98
e 52 99
e 52 100
e 53 55
e 53 56
e 53 59
e 53 60
e 53 61
e 53 63
e 53 65
e 53 66
e 53 68
e 53 70
e 53 71
e 53 75
e 53 80
e 53 82
e 53 85
e 53 87
e 53 89
e 53 90
e 53 91
e 53 93
e 53 94
e 53 95
e 53 96
e 54 55
e 54 64
e 54 69
e 54 72
e 54 78
e 54 79
e 54 80
e 54 81
e 54 82
e 54 84
e 54 89
e 54 91
e 54 92
e 54 93
e 54 96
e 54 99
e 54 100
e 55 57
e 55 58
e 55 59
e 55 62
e 55 65
e 55 66
e 55 67
e 55 68
e 55 71
e 55 72
e 55 73
e 55 75
e 55 76
e 55 77
e 55 78
e 55 79
e 55 82
e 55 83
e 55 85
e 55 87
e 55 89
e 55 90
e 55 92
e 55 94
e 55 95
e 55 97
e 56 57
e 56 58
e 56 64
e 56 69
e 56 72
e 56 73
e 56 75
e 56 76
e 56 77
e 56 78
e 56 81
e 56 83
e 56 84
e 56 86
e 56 87
e 56 88
e 56 89
e 56 90
e 56 91
e 56 92
e 56 94
e 57 58
e 57 60
e 57 61
e 57 62
e 57 65
e 57 66
e 57 69
e 57 71
e 57 73
e 57 74
e 57 78
e 57 81
e 57 82
e 57 85
e 57 87
e 57 88
e 57 90
e 57 92
e 57 93
e 57 95
e 57 97
e 57 99
e 57 100
e 58 60
e 58 63
e 58 66
e 58 67
e 58 68
e 58 70
e 58 73
e 58 74
e 58 75
e 58 77
e 58 80
e 58 81
e 58 84
e 58 85
e 58 86
e 58 89
e 58 93
e 58 95
e 58 96
e 58 98
e 59 60
e 59 61
e 59 64
e 59 68
e 59 69
e 59 71
e 59 72
e 59 73
e 59 74
e 59 76
e 59 77
e 59 85
e 59 86
e 59 87
e 59 89
e 59 91
e 59 93
e 59 94
e 59 95
e 59 99
e 59 100
e 60 63
e 60 64
e 60 65
e 60 66
e 60 71
e 60 72
e 60 73
e 60 74
e 60 77
e 60 80
e 60 83
e 60 85
e 60 90
e 60 91
e 60 93
e 60 96
e 61 64
e 61 66
e 61 68
e 61 69
e 61 70
e 61 71
e 61 72
e 61 73
e 61 74
e 61 77
e 61 78
e 61 79
e 61 81
e 61 84
e 61 86
e 61 88
e 61 89
e 61 93
e 61 94
e 61 95
e 61 97
e 61 98
e 61 99
e 62 64
e 62 65
e 62 66
e 62 67
e 62 68
e 62 69
e 62 72
e 62 73
e 62 76
e 62 77
e 62 78
e 62 80
e 62 81
e 62 82
e 62 83
e 62 84
e 62 88
e 62 89
e 62 90
e 62 91
e 62 93
e 62 95
e 62 96
e 62 97
e 63 67
e 63 68
e 63 69
e 63 70
e 63 71
e 63 73
e 63 77
e 63 78
e 63 83
e 63 89
e 63 91
e 63 93
e 63 94
e 63 95
e 63 96
e 63 97
e 63 100
e 64 65
e 64 66
e 64 68
e 64 69
e 64 70
e 64 71
e 64 72
e 64 76
e 64 78
e 64 79
e 64 80
e 64 84
e 64 86
e 64 89
e 64 91
e 64 92
e 64 96
e 64 98
e 64 100
e 65 68
e 65 69
e 65 71
e 65 73
e 65 75
e 65 76
e 65 84
e 65 88
e 65 91
e 65 93
e 65 96
e 65 98
e 66 67
e 66 68
e 66 69
e 66 71
e 66 72
e 66 74
e 66 75
e 66 78
e 66 81
e 66 82
e 66 86
e 66 87
e 66 91
e 66 92
e 66 94
e 66 95
e 66 97
e 66 99
e 67 69
e 67 73
e 67 74
e 67 76
e 67 78
e 67 79
e 67 81
e 67 83
e 67 87
e 67 89
e 67 90
e 67 95
e 67 97
e 67 99
e 68 71
e 68 72
e 68 76
e 68 78
e 68 79
e 68 80
e 68 87
e 68 88
e 68 90
e 68 91
e 68 92
e 68 93
e 68 97
e 68 98
e 68 99
e 68 100
e 69 72
e 69 74
e 69 75
e 69 78
e 69 80
e 69 81
e 69 83
e 69 88
e 69 89
e 69 90
e 69 93
e 69 94
e 69 95
e 70 73
e 70 74
e 70 76
e 70 77
e 70 82
e 70 83
e 70 84
e 70 85
e 70 86
e 70 91
e 70 92
e 70 93
e 70 95
e 70 97
e 70 99
e 70 100
e 71 73
e 71 75
e 71 76
e 71 77
e 71 81
e 71 82
e 71 83
e 71 84
e 71 85
e 71 86
e 71 88
e 71 89
e 71 91
e 71 93
e 71 94
e 71 95
e 71 97
e 71 100
e 72 74
e 72 77
e 72 80
e 72 82
e 72 86
e 72 87
e 72 88
e 72 89
e 72 90
e 72 92
e 72 94
e 72 95
e 72 96
e 72 100
e 73 75
e 73 76
e 73 78
e 73 79
e 73 81
e 73 84
e 73 85
e 73 86
e 73 87
e 73 89
e 73 90
e 73 93
e 73 94
e 73 96
e 74 75
e 74 76
e 74 77
e 74 78
e 74 83
e 74 84
e 74 86
e 74 92
e 74 93
e 74 94
e 74 95
e 74 97
e 75 77
e 75 78
e 75 79
e 75 80
e 75 82
e 75 85
e 75 88
e 75 90
e 75 96
e 75 97
e 75 98
e 76 79
e 76 80
e 76 82
e 76 86
e 76 87
e 76 93
e 76 94
e 76 96
e 76 97
e 76 99
e 77 79
e 77 81
e 77 82
e 77 84
e 77 87
e 77 88
e 77 93
e 77 95
e 77 96
e 77 98
e 77 99
e 77 100
e 78 79
e 78 81
e 78 82
e 78 83
e 78 88
e 78 90
e 78 91
e 78 92
e 78 97
e 78 98
e 78 100
e 79 80
e 79 82
e 79 83
e 79 85
e 79 88
e 79 89
e 79 92
e 79 97
e 79 100
e 80 82
e 80 83
e 80 85
e 80 87
e 80 89
e 80 91
e 80 92
e 80 93
e 80 94
e 80 96
e 80 97
e 80 98
e 80 100
e 81 83
e 81 87
e 81 88
e 81 89
e 81 90
e 81 91
e 81 92
e 81 93
e 81 95
e 81 96
e 81 97
e 81 100
e 82 84
e 82 88
e 82 90
e 82 91
e 82 92
e 82 94
e 82 96
e 82 99
e 83 86
e 83 94
e 83 98
e 83 99
e 83 100
e 84 86
e 84 89
e 84 90
e 84 91
e 84 96
e 84 97
e 84 98
e 85 88
e 85 89
e 85 91
e 85 95
e 85 96
e 86 88
e 86 89
e 86 91
e 86 92
e 86 93
e 86 97
e 86 98
e 87 88
e 87 90
e 87 92
e 87 93
e 87 95
e 87 98
e 88 89
e 88 90
e 88 91
e 88 92
e 88 93
e 88 95
e 88 98
e 88 99
e 89 91
e 89 92
e 89 93
e 89 94
e 89 95
e 89 96
e 89 98
e 89 99
e 89 100
e 90 93
e 90 94
e 90 96
e 90 98
e 90 99
e 91 92
e 91 96
e 91 97
e 91 99
e 91 100
e 92 93
e 92 94
e 92 95
e 92 97
e 92 98
e 93 94
e 93 96
e 93 98
e 94 98
e 94 99
e 95 96
e 96 97
e 96 98
e 96 100
e 97 99
e 97 100
